true true true
presolving:
presolving (0 rounds: 0 fast, 0 medium, 0 exhaustive):
 0 deleted vars, 0 deleted constraints, 0 added constraints, 0 tightened bounds, 0 added holes, 0 changed sides, 0 changed coefficients
 0 implications, 0 cliques
presolved problem has 56 variables (56 bin, 0 int, 0 impl, 0 cont) and 48 constraints
     48 constraints of type <linear>
transformed objective value is always integral (scale: 1)
Presolving Time: 0.00

 time | node  | left  |LP iter|LP it/n|mem/heur|mdpt |vars |cons |rows |cuts |sepa|confs|strbr|  dualbound   | primalbound  |  gap   | compl. 
p 0.0s|     1 |     0 |     0 |     - |shiftand|   0 |  56 |  48 |  48 |   0 |  0 |   0 |   0 |      --      | 8.000000e+00 |    Inf | unknown
 time | node  | left  |LP iter|LP it/n|mem/heur|mdpt |vars |cons |rows |cuts |sepa|confs|strbr|  dualbound   | primalbound  |  gap   | compl. 
  0.0s|     1 |     0 |    26 |     - |  3159k |   0 | 864 |  48 |  48 |   0 |  0 |   0 |   0 | 1.000000e+00 | 8.000000e+00 | 700.00%| unknown
 time | node  | left  |LP iter|LP it/n|mem/heur|mdpt |vars |cons |rows |cuts |sepa|confs|strbr|  dualbound   | primalbound  |  gap   | compl. 
  906s|     1 |     0 |  1024 |     - |    16M |   0 |4477 |  48 |  48 |   0 |  0 |   0 |   0 | 6.000000e+00 | 8.000000e+00 |  33.33%| unknown
 time | node  | left  |LP iter|LP it/n|mem/heur|mdpt |vars |cons |rows |cuts |sepa|confs|strbr|  dualbound   | primalbound  |  gap   | compl. 
o 906s|     1 |     0 |  2027 |     - |feaspump|   0 |4477 |  48 |  48 |   0 |  0 |   0 |   0 | 6.000000e+00 | 7.000000e+00 |  16.67%| unknown
 time | node  | left  |LP iter|LP it/n|mem/heur|mdpt |vars |cons |rows |cuts |sepa|confs|strbr|  dualbound   | primalbound  |  gap   | compl. 
  907s|     1 |     2 |  2027 |     - |    17M |   0 |4477 |  48 |  48 |   0 |  1 |   0 |   0 | 6.000000e+00 | 7.000000e+00 |  16.67%| unknown
 time | node  | left  |LP iter|LP it/n|mem/heur|mdpt |vars |cons |rows |cuts |sepa|confs|strbr|  dualbound   | primalbound  |  gap   | compl. 
  907s|     2 |     3 |  2056 |  29.0 |    18M |   1 |4477 |  48 |  48 |   0 |  1 |   0 |   0 | 6.000000e+00 | 7.000000e+00 |  16.67%| unknown
 time | node  | left  |LP iter|LP it/n|mem/heur|mdpt |vars |cons |rows |cuts |sepa|confs|strbr|  dualbound   | primalbound  |  gap   | compl. 
  907s|     3 |     4 |  2085 |  29.0 |    19M |   1 |4477 |  48 |  48 |   0 |  1 |   0 |   0 | 6.000000e+00 | 7.000000e+00 |  16.67%| unknown
 time | node  | left  |LP iter|LP it/n|mem/heur|mdpt |vars |cons |rows |cuts |sepa|confs|strbr|  dualbound   | primalbound  |  gap   | compl. 
  907s|     4 |     5 |  2089 |  20.7 |    19M |   2 |4477 |  48 |  48 |   0 |  1 |   0 |   0 | 6.000000e+00 | 7.000000e+00 |  16.67%| unknown
 time | node  | left  |LP iter|LP it/n|mem/heur|mdpt |vars |cons |rows |cuts |sepa|confs|strbr|  dualbound   | primalbound  |  gap   | compl. 
  907s|     5 |     6 |  2144 |  29.2 |    19M |   3 |4477 |  48 |  48 |   0 |  1 |   0 |   0 | 6.000000e+00 | 7.000000e+00 |  16.67%| unknown
 time | node  | left  |LP iter|LP it/n|mem/heur|mdpt |vars |cons |rows |cuts |sepa|confs|strbr|  dualbound   | primalbound  |  gap   | compl. 
  907s|     6 |     7 |  3058 | 206.2 |    19M |   3 |4477 |  48 |  48 |   0 |  1 |   0 |   0 | 6.000000e+00 | 7.000000e+00 |  16.67%| unknown
 time | node  | left  |LP iter|LP it/n|mem/heur|mdpt |vars |cons |rows |cuts |sepa|confs|strbr|  dualbound   | primalbound  |  gap   | compl. 
  907s|     7 |     8 |  3095 | 178.0 |    20M |   3 |4477 |  48 |  48 |   0 |  1 |   0 |   0 | 6.000000e+00 | 7.000000e+00 |  16.67%| unknown
 time | node  | left  |LP iter|LP it/n|mem/heur|mdpt |vars |cons |rows |cuts |sepa|confs|strbr|  dualbound   | primalbound  |  gap   | compl. 
  907s|     8 |     9 |  3154 | 161.0 |    20M |   3 |4477 |  48 |  48 |   0 |  1 |   0 |   0 | 6.000000e+00 | 7.000000e+00 |  16.67%| unknown
 time | node  | left  |LP iter|LP it/n|mem/heur|mdpt |vars |cons |rows |cuts |sepa|confs|strbr|  dualbound   | primalbound  |  gap   | compl. 
  907s|     9 |    10 |  3200 | 146.6 |    20M |   4 |4477 |  48 |  48 |   0 |  1 |   0 |   0 | 6.000000e+00 | 7.000000e+00 |  16.67%| unknown
 time | node  | left  |LP iter|LP it/n|mem/heur|mdpt |vars |cons |rows |cuts |sepa|confs|strbr|  dualbound   | primalbound  |  gap   | compl. 
  907s|    10 |    11 |  3224 | 133.0 |    20M |   4 |4477 |  48 |  48 |   0 |  1 |   0 |   0 | 6.000000e+00 | 7.000000e+00 |  16.67%| unknown
 time | node  | left  |LP iter|LP it/n|mem/heur|mdpt |vars |cons |rows |cuts |sepa|confs|strbr|  dualbound   | primalbound  |  gap   | compl. 
  907s|    11 |    12 |  3294 | 126.7 |    20M |   5 |4477 |  48 |  48 |   0 |  1 |   0 |   0 | 6.000000e+00 | 7.000000e+00 |  16.67%| unknown
 time | node  | left  |LP iter|LP it/n|mem/heur|mdpt |vars |cons |rows |cuts |sepa|confs|strbr|  dualbound   | primalbound  |  gap   | compl. 
  908s|    12 |    13 |  3513 | 135.1 |    20M |   5 |4477 |  48 |  48 |   0 |  1 |   0 |   0 | 6.000000e+00 | 7.000000e+00 |  16.67%| unknown
 time | node  | left  |LP iter|LP it/n|mem/heur|mdpt |vars |cons |rows |cuts |sepa|confs|strbr|  dualbound   | primalbound  |  gap   | compl. 
  908s|    13 |    14 |  3686 | 138.2 |    21M |   6 |4945 |  48 |  48 |   0 |  1 |   0 |   0 | 6.000000e+00 | 7.000000e+00 |  16.67%| unknown
 time | node  | left  |LP iter|LP it/n|mem/heur|mdpt |vars |cons |rows |cuts |sepa|confs|strbr|  dualbound   | primalbound  |  gap   | compl. 
  908s|    14 |    15 |  3713 | 129.7 |    21M |   7 |4945 |  48 |  48 |   0 |  1 |   0 |   0 | 6.000000e+00 | 7.000000e+00 |  16.67%| unknown
 time | node  | left  |LP iter|LP it/n|mem/heur|mdpt |vars |cons |rows |cuts |sepa|confs|strbr|  dualbound   | primalbound  |  gap   | compl. 
  938s|    15 |    14 |  4279 | 160.9 |    25M |   7 |6086 |  48 |  48 |   0 |  0 |   0 |   0 | 6.000000e+00 | 7.000000e+00 |  16.67%| unknown
 time | node  | left  |LP iter|LP it/n|mem/heur|mdpt |vars |cons |rows |cuts |sepa|confs|strbr|  dualbound   | primalbound  |  gap   | compl. 
  938s|    16 |    15 |  4376 | 156.6 |    26M |   8 |6086 |  48 |  48 |   0 |  1 |   0 |   0 | 6.000000e+00 | 7.000000e+00 |  16.67%|   0.29%
 time | node  | left  |LP iter|LP it/n|mem/heur|mdpt |vars |cons |rows |cuts |sepa|confs|strbr|  dualbound   | primalbound  |  gap   | compl. 
  938s|    17 |    16 |  4394 | 147.9 |    26M |   9 |6086 |  48 |  48 |   0 |  1 |   0 |   0 | 6.000000e+00 | 7.000000e+00 |  16.67%|   0.29%
 time | node  | left  |LP iter|LP it/n|mem/heur|mdpt |vars |cons |rows |cuts |sepa|confs|strbr|  dualbound   | primalbound  |  gap   | compl. 
  938s|    18 |    17 |  4604 | 151.6 |    26M |   9 |6086 |  48 |  48 |   0 |  1 |   0 |   0 | 6.000000e+00 | 7.000000e+00 |  16.67%|   0.29%
 time | node  | left  |LP iter|LP it/n|mem/heur|mdpt |vars |cons |rows |cuts |sepa|confs|strbr|  dualbound   | primalbound  |  gap   | compl. 
  939s|    19 |    18 |  4832 | 155.8 |    28M |  10 |6514 |  48 |  48 |   0 |  1 |   0 |   0 | 6.000000e+00 | 7.000000e+00 |  16.67%|   0.29%
 time | node  | left  |LP iter|LP it/n|mem/heur|mdpt |vars |cons |rows |cuts |sepa|confs|strbr|  dualbound   | primalbound  |  gap   | compl. 
  939s|    20 |    19 |  4894 | 150.9 |    28M |  11 |6514 |  48 |  48 |   0 |  1 |   0 |   0 | 6.000000e+00 | 7.000000e+00 |  16.67%|   0.29%
 time | node  | left  |LP iter|LP it/n|mem/heur|mdpt |vars |cons |rows |cuts |sepa|confs|strbr|  dualbound   | primalbound  |  gap   | compl. 
  939s|    21 |    20 |  4915 | 144.4 |    28M |  12 |6514 |  48 |  48 |   0 |  1 |   0 |   0 | 6.000000e+00 | 7.000000e+00 |  16.67%|   0.29%
 time | node  | left  |LP iter|LP it/n|mem/heur|mdpt |vars |cons |rows |cuts |sepa|confs|strbr|  dualbound   | primalbound  |  gap   | compl. 
  942s|    22 |    21 |  5205 | 151.3 |    28M |  13 |6970 |  48 |  48 |   0 |  1 |   0 |   0 | 6.000000e+00 | 7.000000e+00 |  16.67%|   0.29%
 time | node  | left  |LP iter|LP it/n|mem/heur|mdpt |vars |cons |rows |cuts |sepa|confs|strbr|  dualbound   | primalbound  |  gap   | compl. 
  942s|    23 |    22 |  5380 | 152.4 |    30M |  13 |7314 |  48 |  48 |   0 |  1 |   0 |   0 | 6.000000e+00 | 7.000000e+00 |  16.67%|   0.29%
 time | node  | left  |LP iter|LP it/n|mem/heur|mdpt |vars |cons |rows |cuts |sepa|confs|strbr|  dualbound   | primalbound  |  gap   | compl. 
  942s|    24 |    23 |  5475 | 149.9 |    31M |  13 |7314 |  48 |  48 |   0 |  1 |   0 |   0 | 6.000000e+00 | 7.000000e+00 |  16.67%|   0.29%
 time | node  | left  |LP iter|LP it/n|mem/heur|mdpt |vars |cons |rows |cuts |sepa|confs|strbr|  dualbound   | primalbound  |  gap   | compl. 
  942s|    25 |    24 |  5519 | 145.5 |    31M |  13 |7314 |  48 |  48 |   0 |  1 |   0 |   0 | 6.000000e+00 | 7.000000e+00 |  16.67%|   0.29%
 time | node  | left  |LP iter|LP it/n|mem/heur|mdpt |vars |cons |rows |cuts |sepa|confs|strbr|  dualbound   | primalbound  |  gap   | compl. 
  943s|    26 |    25 |  5691 | 146.6 |    31M |  13 |7314 |  48 |  48 |   0 |  1 |   0 |   0 | 6.000000e+00 | 7.000000e+00 |  16.67%|   0.29%
 time | node  | left  |LP iter|LP it/n|mem/heur|mdpt |vars |cons |rows |cuts |sepa|confs|strbr|  dualbound   | primalbound  |  gap   | compl. 
  943s|    27 |    24 |  5744 | 143.0 |    31M |  13 |7381 |  48 |  48 |   0 |  0 |   0 |   0 | 6.000000e+00 | 7.000000e+00 |  16.67%|   0.29%
 time | node  | left  |LP iter|LP it/n|mem/heur|mdpt |vars |cons |rows |cuts |sepa|confs|strbr|  dualbound   | primalbound  |  gap   | compl. 
  943s|    28 |    23 |  5773 | 138.7 |    31M |  14 |7427 |  48 |  48 |   0 |  0 |   0 |   0 | 6.000000e+00 | 7.000000e+00 |  16.67%|   0.30%
 time | node  | left  |LP iter|LP it/n|mem/heur|mdpt |vars |cons |rows |cuts |sepa|confs|strbr|  dualbound   | primalbound  |  gap   | compl. 
  944s|    29 |    24 |  5852 | 136.6 |    31M |  14 |7427 |  48 |  48 |   0 |  1 |   0 |   0 | 6.000000e+00 | 7.000000e+00 |  16.67%|   0.31%
 time | node  | left  |LP iter|LP it/n|mem/heur|mdpt |vars |cons |rows |cuts |sepa|confs|strbr|  dualbound   | primalbound  |  gap   | compl. 
  944s|    30 |    25 |  5898 | 133.5 |    31M |  15 |7427 |  48 |  48 |   0 |  1 |   0 |   0 | 6.000000e+00 | 7.000000e+00 |  16.67%|   0.31%
 time | node  | left  |LP iter|LP it/n|mem/heur|mdpt |vars |cons |rows |cuts |sepa|confs|strbr|  dualbound   | primalbound  |  gap   | compl. 
  944s|    31 |    26 |  6190 | 138.8 |    31M |  16 |7427 |  48 |  48 |   0 |  1 |   0 |   0 | 6.000000e+00 | 7.000000e+00 |  16.67%|   0.31%
 time | node  | left  |LP iter|LP it/n|mem/heur|mdpt |vars |cons |rows |cuts |sepa|confs|strbr|  dualbound   | primalbound  |  gap   | compl. 
  947s|    32 |    27 |  6403 | 141.2 |    31M |  16 |7697 |  48 |  48 |   0 |  1 |   0 |   0 | 6.000000e+00 | 7.000000e+00 |  16.67%|   0.31%
 time | node  | left  |LP iter|LP it/n|mem/heur|mdpt |vars |cons |rows |cuts |sepa|confs|strbr|  dualbound   | primalbound  |  gap   | compl. 
  947s|    33 |    28 |  6445 | 138.1 |    32M |  16 |7697 |  48 |  48 |   0 |  1 |   0 |   0 | 6.000000e+00 | 7.000000e+00 |  16.67%|   0.31%
 time | node  | left  |LP iter|LP it/n|mem/heur|mdpt |vars |cons |rows |cuts |sepa|confs|strbr|  dualbound   | primalbound  |  gap   | compl. 
  947s|    34 |    29 |  6575 | 137.8 |    32M |  16 |7697 |  48 |  48 |   0 |  1 |   0 |   0 | 6.000000e+00 | 7.000000e+00 |  16.67%|   0.31%
 time | node  | left  |LP iter|LP it/n|mem/heur|mdpt |vars |cons |rows |cuts |sepa|confs|strbr|  dualbound   | primalbound  |  gap   | compl. 
  947s|    35 |    30 |  6805 | 140.5 |    32M |  16 |7697 |  48 |  48 |   0 |  1 |   0 |   0 | 6.000000e+00 | 7.000000e+00 |  16.67%|   0.31%
 time | node  | left  |LP iter|LP it/n|mem/heur|mdpt |vars |cons |rows |cuts |sepa|confs|strbr|  dualbound   | primalbound  |  gap   | compl. 
  948s|    36 |    31 |  6924 | 139.9 |    32M |  16 |7697 |  48 |  48 |   0 |  1 |   0 |   0 | 6.000000e+00 | 7.000000e+00 |  16.67%|   0.31%
 time | node  | left  |LP iter|LP it/n|mem/heur|mdpt |vars |cons |rows |cuts |sepa|confs|strbr|  dualbound   | primalbound  |  gap   | compl. 
  948s|    37 |    32 |  7282 | 146.0 |    32M |  16 |7697 |  48 |  48 |   0 |  1 |   0 |   0 | 6.000000e+00 | 7.000000e+00 |  16.67%|   0.31%
 time | node  | left  |LP iter|LP it/n|mem/heur|mdpt |vars |cons |rows |cuts |sepa|confs|strbr|  dualbound   | primalbound  |  gap   | compl. 
  948s|    38 |    33 |  7470 | 147.1 |    33M |  16 |7697 |  48 |  48 |   0 |  1 |   0 |   0 | 6.000000e+00 | 7.000000e+00 |  16.67%|   0.31%
 time | node  | left  |LP iter|LP it/n|mem/heur|mdpt |vars |cons |rows |cuts |sepa|confs|strbr|  dualbound   | primalbound  |  gap   | compl. 
  948s|    39 |    34 |  8144 | 161.0 |    33M |  16 |7697 |  48 |  48 |   0 |  1 |   0 |   0 | 6.000000e+00 | 7.000000e+00 |  16.67%|   0.31%
 time | node  | left  |LP iter|LP it/n|mem/heur|mdpt |vars |cons |rows |cuts |sepa|confs|strbr|  dualbound   | primalbound  |  gap   | compl. 
  949s|    40 |    35 |  8207 | 158.5 |    33M |  16 |7697 |  48 |  48 |   0 |  1 |   0 |   0 | 6.000000e+00 | 7.000000e+00 |  16.67%|   0.31%
 time | node  | left  |LP iter|LP it/n|mem/heur|mdpt |vars |cons |rows |cuts |sepa|confs|strbr|  dualbound   | primalbound  |  gap   | compl. 
  949s|    41 |    36 |  8595 | 164.2 |    33M |  16 |7697 |  48 |  48 |   0 |  1 |   0 |   0 | 6.000000e+00 | 7.000000e+00 |  16.67%|   0.31%
 time | node  | left  |LP iter|LP it/n|mem/heur|mdpt |vars |cons |rows |cuts |sepa|confs|strbr|  dualbound   | primalbound  |  gap   | compl. 
  949s|    42 |    37 |  8641 | 161.3 |    33M |  16 |7697 |  48 |  48 |   0 |  1 |   0 |   0 | 6.000000e+00 | 7.000000e+00 |  16.67%|   0.31%
 time | node  | left  |LP iter|LP it/n|mem/heur|mdpt |vars |cons |rows |cuts |sepa|confs|strbr|  dualbound   | primalbound  |  gap   | compl. 
  949s|    43 |    38 |  9109 | 168.6 |    34M |  16 |7697 |  48 |  48 |   0 |  1 |   0 |   0 | 6.000000e+00 | 7.000000e+00 |  16.67%|   0.31%
 time | node  | left  |LP iter|LP it/n|mem/heur|mdpt |vars |cons |rows |cuts |sepa|confs|strbr|  dualbound   | primalbound  |  gap   | compl. 
  949s|    44 |    39 |  9176 | 166.3 |    34M |  16 |7697 |  48 |  48 |   0 |  1 |   0 |   0 | 6.000000e+00 | 7.000000e+00 |  16.67%|   0.31%
 time | node  | left  |LP iter|LP it/n|mem/heur|mdpt |vars |cons |rows |cuts |sepa|confs|strbr|  dualbound   | primalbound  |  gap   | compl. 
  949s|    45 |    40 |  9490 | 169.6 |    34M |  16 |7697 |  48 |  48 |   0 |  1 |   0 |   0 | 6.000000e+00 | 7.000000e+00 |  16.67%|   0.31%
 time | node  | left  |LP iter|LP it/n|mem/heur|mdpt |vars |cons |rows |cuts |sepa|confs|strbr|  dualbound   | primalbound  |  gap   | compl. 
  949s|    46 |    41 |  9613 | 168.6 |    34M |  16 |7697 |  48 |  48 |   0 |  1 |   0 |   0 | 6.000000e+00 | 7.000000e+00 |  16.67%|   0.31%
 time | node  | left  |LP iter|LP it/n|mem/heur|mdpt |vars |cons |rows |cuts |sepa|confs|strbr|  dualbound   | primalbound  |  gap   | compl. 
  950s|    47 |    42 |  9700 | 166.8 |    34M |  16 |7697 |  48 |  48 |   0 |  1 |   0 |   0 | 6.000000e+00 | 7.000000e+00 |  16.67%|   0.31%
 time | node  | left  |LP iter|LP it/n|mem/heur|mdpt |vars |cons |rows |cuts |sepa|confs|strbr|  dualbound   | primalbound  |  gap   | compl. 
  950s|    48 |    43 |  9915 | 167.8 |    35M |  16 |7976 |  48 |  48 |   0 |  1 |   0 |   0 | 6.000000e+00 | 7.000000e+00 |  16.67%|   0.31%
 time | node  | left  |LP iter|LP it/n|mem/heur|mdpt |vars |cons |rows |cuts |sepa|confs|strbr|  dualbound   | primalbound  |  gap   | compl. 
  951s|    49 |    44 | 10214 | 170.6 |    37M |  16 |8148 |  48 |  48 |   0 |  1 |   0 |   0 | 6.000000e+00 | 7.000000e+00 |  16.67%|   0.31%
 time | node  | left  |LP iter|LP it/n|mem/heur|mdpt |vars |cons |rows |cuts |sepa|confs|strbr|  dualbound   | primalbound  |  gap   | compl. 
  951s|    50 |    45 | 10291 | 168.7 |    37M |  16 |8148 |  48 |  48 |   0 |  1 |   0 |   0 | 6.000000e+00 | 7.000000e+00 |  16.67%|   0.31%
 time | node  | left  |LP iter|LP it/n|mem/heur|mdpt |vars |cons |rows |cuts |sepa|confs|strbr|  dualbound   | primalbound  |  gap   | compl. 
  952s|    51 |    46 | 10514 | 169.7 |    37M |  16 |8379 |  48 |  48 |   0 |  1 |   0 |   0 | 6.000000e+00 | 7.000000e+00 |  16.67%|   0.31%
 time | node  | left  |LP iter|LP it/n|mem/heur|mdpt |vars |cons |rows |cuts |sepa|confs|strbr|  dualbound   | primalbound  |  gap   | compl. 
  952s|    52 |    47 | 10537 | 166.9 |    37M |  16 |8379 |  48 |  48 |   0 |  1 |   0 |   0 | 6.000000e+00 | 7.000000e+00 |  16.67%|   0.31%
 time | node  | left  |LP iter|LP it/n|mem/heur|mdpt |vars |cons |rows |cuts |sepa|confs|strbr|  dualbound   | primalbound  |  gap   | compl. 
  952s|    53 |    48 | 10769 | 168.1 |    37M |  16 |8379 |  48 |  48 |   0 |  1 |   0 |   0 | 6.000000e+00 | 7.000000e+00 |  16.67%|   0.31%
 time | node  | left  |LP iter|LP it/n|mem/heur|mdpt |vars |cons |rows |cuts |sepa|confs|strbr|  dualbound   | primalbound  |  gap   | compl. 
  952s|    54 |    49 | 10811 | 165.7 |    37M |  16 |8379 |  48 |  48 |   0 |  1 |   0 |   0 | 6.000000e+00 | 7.000000e+00 |  16.67%|   0.31%
 time | node  | left  |LP iter|LP it/n|mem/heur|mdpt |vars |cons |rows |cuts |sepa|confs|strbr|  dualbound   | primalbound  |  gap   | compl. 
  953s|    55 |    50 | 10937 | 165.0 |    37M |  16 |8595 |  48 |  48 |   0 |  1 |   0 |   0 | 6.000000e+00 | 7.000000e+00 |  16.67%|   0.31%
 time | node  | left  |LP iter|LP it/n|mem/heur|mdpt |vars |cons |rows |cuts |sepa|confs|strbr|  dualbound   | primalbound  |  gap   | compl. 
  953s|    56 |    51 | 10982 | 162.8 |    38M |  16 |8595 |  48 |  48 |   0 |  1 |   0 |   0 | 6.000000e+00 | 7.000000e+00 |  16.67%|   0.31%
 time | node  | left  |LP iter|LP it/n|mem/heur|mdpt |vars |cons |rows |cuts |sepa|confs|strbr|  dualbound   | primalbound  |  gap   | compl. 
  954s|    57 |    52 | 11073 | 161.5 |    40M |  16 |8734 |  48 |  48 |   0 |  1 |   0 |   0 | 6.000000e+00 | 7.000000e+00 |  16.67%|   0.31%
 time | node  | left  |LP iter|LP it/n|mem/heur|mdpt |vars |cons |rows |cuts |sepa|confs|strbr|  dualbound   | primalbound  |  gap   | compl. 
  955s|    58 |    53 | 11313 | 162.9 |    40M |  16 |8734 |  48 |  48 |   0 |  1 |   0 |   0 | 6.000000e+00 | 7.000000e+00 |  16.67%|   0.31%
 time | node  | left  |LP iter|LP it/n|mem/heur|mdpt |vars |cons |rows |cuts |sepa|confs|strbr|  dualbound   | primalbound  |  gap   | compl. 
  955s|    59 |    54 | 11522 | 163.7 |    40M |  16 |8979 |  48 |  48 |   0 |  1 |   0 |   0 | 6.000000e+00 | 7.000000e+00 |  16.67%|   0.31%
 time | node  | left  |LP iter|LP it/n|mem/heur|mdpt |vars |cons |rows |cuts |sepa|confs|strbr|  dualbound   | primalbound  |  gap   | compl. 
  955s|    60 |    55 | 11534 | 161.1 |    40M |  16 |8979 |  48 |  48 |   0 |  1 |   0 |   0 | 6.000000e+00 | 7.000000e+00 |  16.67%|   0.31%
 time | node  | left  |LP iter|LP it/n|mem/heur|mdpt |vars |cons |rows |cuts |sepa|confs|strbr|  dualbound   | primalbound  |  gap   | compl. 
  956s|    61 |    56 | 11545 | 158.6 |    40M |  16 |8979 |  48 |  48 |   0 |  1 |   0 |   0 | 6.000000e+00 | 7.000000e+00 |  16.67%|   0.31%
 time | node  | left  |LP iter|LP it/n|mem/heur|mdpt |vars |cons |rows |cuts |sepa|confs|strbr|  dualbound   | primalbound  |  gap   | compl. 
  957s|    62 |    57 | 11787 | 160.0 |    40M |  17 |9244 |  48 |  48 |   0 |  1 |   0 |   0 | 6.000000e+00 | 7.000000e+00 |  16.67%|   0.31%
 time | node  | left  |LP iter|LP it/n|mem/heur|mdpt |vars |cons |rows |cuts |sepa|confs|strbr|  dualbound   | primalbound  |  gap   | compl. 
  958s|    63 |    58 | 11942 | 159.9 |    40M |  18 |9366 |  48 |  48 |   0 |  1 |   0 |   0 | 6.000000e+00 | 7.000000e+00 |  16.67%|   0.31%
 time | node  | left  |LP iter|LP it/n|mem/heur|mdpt |vars |cons |rows |cuts |sepa|confs|strbr|  dualbound   | primalbound  |  gap   | compl. 
  959s|    64 |    59 | 12622 | 168.2 |    40M |  19 |9388 |  48 |  48 |   0 |  1 |   0 |   0 | 6.000000e+00 | 7.000000e+00 |  16.67%|   0.31%
 time | node  | left  |LP iter|LP it/n|mem/heur|mdpt |vars |cons |rows |cuts |sepa|confs|strbr|  dualbound   | primalbound  |  gap   | compl. 
  960s|    65 |    58 | 12699 | 166.8 |    40M |  19 |9388 |  48 |  48 |   0 |  0 |   0 |   0 | 6.000000e+00 | 7.000000e+00 |  16.67%|   0.31%
 time | node  | left  |LP iter|LP it/n|mem/heur|mdpt |vars |cons |rows |cuts |sepa|confs|strbr|  dualbound   | primalbound  |  gap   | compl. 
  961s|    66 |    59 | 12938 | 167.9 |    42M |  19 |9739 |  48 |  48 |   0 |  1 |   0 |   0 | 6.000000e+00 | 7.000000e+00 |  16.67%|   0.31%
 time | node  | left  |LP iter|LP it/n|mem/heur|mdpt |vars |cons |rows |cuts |sepa|confs|strbr|  dualbound   | primalbound  |  gap   | compl. 
  962s|    67 |    60 | 14004 | 181.5 |    43M |  19 |9762 |  48 |  48 |   0 |  1 |   0 |   0 | 6.000000e+00 | 7.000000e+00 |  16.67%|   0.31%
 time | node  | left  |LP iter|LP it/n|mem/heur|mdpt |vars |cons |rows |cuts |sepa|confs|strbr|  dualbound   | primalbound  |  gap   | compl. 
  963s|    68 |    61 | 14053 | 179.5 |    43M |  19 |9762 |  48 |  48 |   0 |  1 |   0 |   0 | 6.000000e+00 | 7.000000e+00 |  16.67%|   0.31%
 time | node  | left  |LP iter|LP it/n|mem/heur|mdpt |vars |cons |rows |cuts |sepa|confs|strbr|  dualbound   | primalbound  |  gap   | compl. 
  963s|    69 |    62 | 14101 | 177.6 |    43M |  19 |9762 |  48 |  48 |   0 |  1 |   0 |   0 | 6.000000e+00 | 7.000000e+00 |  16.67%|   0.31%
 time | node  | left  |LP iter|LP it/n|mem/heur|mdpt |vars |cons |rows |cuts |sepa|confs|strbr|  dualbound   | primalbound  |  gap   | compl. 
  963s|    70 |    63 | 14117 | 175.2 |    43M |  19 |9762 |  48 |  48 |   0 |  1 |   0 |   0 | 6.000000e+00 | 7.000000e+00 |  16.67%|   0.31%
 time | node  | left  |LP iter|LP it/n|mem/heur|mdpt |vars |cons |rows |cuts |sepa|confs|strbr|  dualbound   | primalbound  |  gap   | compl. 
  964s|    71 |    64 | 14421 | 177.1 |    45M |  20 |9956 |  48 |  48 |   0 |  1 |   0 |   0 | 6.000000e+00 | 7.000000e+00 |  16.67%|   0.31%
 time | node  | left  |LP iter|LP it/n|mem/heur|mdpt |vars |cons |rows |cuts |sepa|confs|strbr|  dualbound   | primalbound  |  gap   | compl. 
  964s|    72 |    65 | 14447 | 174.9 |    45M |  20 |9956 |  48 |  48 |   0 |  1 |   0 |   0 | 6.000000e+00 | 7.000000e+00 |  16.67%|   0.31%
 time | node  | left  |LP iter|LP it/n|mem/heur|mdpt |vars |cons |rows |cuts |sepa|confs|strbr|  dualbound   | primalbound  |  gap   | compl. 
  965s|    73 |    66 | 14448 | 172.5 |    45M |  20 |9956 |  48 |  48 |   0 |  1 |   0 |   0 | 6.000000e+00 | 7.000000e+00 |  16.67%|   0.31%
 time | node  | left  |LP iter|LP it/n|mem/heur|mdpt |vars |cons |rows |cuts |sepa|confs|strbr|  dualbound   | primalbound  |  gap   | compl. 
L 965s|    74 |     0 | 14549 | 171.5 |    alns|  20 |  10k|  48 |  48 |   0 |  1 |   0 |   0 | 6.000000e+00 | 6.000000e+00 |   0.00%| 100.00%

SCIP Status        : problem is solved [optimal solution found]
Solving Time (sec) : 965.42
Solving Nodes      : 74
Primal Bound       : +6.00000000000000e+00 (7 solutions)
Dual Bound         : +6.00000000000000e+00
Gap                : 0.00 %
Running with parallel: True bidir: True symbreak: True
Number of Nodes:  48
48.95833333333333% holds
starting cheapest insertion heuristic
Heuristic without TSP improvement:  8
Heuristic without TSP improvement time:  0.1
Heuristic Sol:  8
Heuristic total time:  0.1
[[15, 32, 3, 5, 0, 43], [29, 22, 8], [47, 39, 16, 14, 24, 17, 12, 23, 35], [46, 37, 33, 45, 19, 18, 2, 36, 10, 4], [44, 9, 34, 13], [42, 20, 21, 1, 7, 41, 25], [40, 28], [38, 31, 30, 26, 27, 6, 11]]
Instance path:  /home/htc/mghannam/SCRATCH/lccp-rust/data/t62_att48.npcc
Timelimit:  7200
Heuristic without TSP improvement:  8
Heuristic without TSP improvement time:  0.1
Heuristic Sol:  8
Heuristic total time:  0.2
at 1 zero_duals: 40
at1, LP obj: 8.0 n_added_paths: 808
at 1 zero_duals: 34
at1, LP obj: 8.0 n_added_paths: 493
at 1 zero_duals: 23
at1, LP obj: 8.0 n_added_paths: 637
at 1 zero_duals: 11
at1, LP obj: 7.059859154929578 n_added_paths: 539
at 1 zero_duals: 8
at1, LP obj: 6.357142857142858 n_added_paths: 412
at 1 zero_duals: 7
at1, LP obj: 6.083516483516484 n_added_paths: 299
at 1 zero_duals: 6
at1, LP obj: 5.785714285714286 n_added_paths: 323
at 1 zero_duals: 3
at1, LP obj: 5.727410358565737 n_added_paths: 263
at 1 zero_duals: 5
at1, LP obj: 5.66498873387986 n_added_paths: 147
at 1 zero_duals: 4
at1, LP obj: 5.6 n_added_paths: 112
at1, LP obj: 5.585129310344827 n_added_paths: 62
at 1 zero_duals: 1
Switching to elementary pricing
at1, LP obj: 5.561904761904762 n_added_paths: 192
updated lowerbound from 1.0 to 5
at 1 zero_duals: 4
Switching to elementary pricing
at1, LP obj: 5.518716577540107 n_added_paths: 85
at 1 zero_duals: 2
Switching to elementary pricing
at1, LP obj: 5.508474576271186 n_added_paths: 49
updated lowerbound from 5.0 to 6
Gap too small = 0, stopping pricing with lb = 6
Gap too small = 0, stopping pricing with lb = 6
Gap too small = 0, stopping pricing with lb = 6
Gap too small = 0, stopping pricing with lb = 6
Gap too small = 0, stopping pricing with lb = 6
Gap too small = 0, stopping pricing with lb = 6
Gap too small = 0, stopping pricing with lb = 6
Gap too small = 0, stopping pricing with lb = 6
Gap too small = 0, stopping pricing with lb = 6
Gap too small = 0, stopping pricing with lb = 6
Gap too small = 0, stopping pricing with lb = 6
Gap too small = 0, stopping pricing with lb = 6
at 23 zero_duals: 12
at23, LP obj: 6.026455026455026 n_added_paths: 468
Gap too small = 0, stopping pricing with lb = 6
Gap too small = 0, stopping pricing with lb = 6
at 27 zero_duals: 46
at27, LP obj: 1e+20 n_added_paths: 29
at 27 zero_duals: 9
at27, LP obj: 6.857142857142857 n_added_paths: 447
at 27 zero_duals: 9
at27, LP obj: 6.628205128205128 n_added_paths: 323
at 27 zero_duals: 5
Switching to elementary pricing
at27, LP obj: 6.625482625482626 n_added_paths: 174
at 27 zero_duals: 4
Switching to elementary pricing
at27, LP obj: 6.584615384615384 n_added_paths: 111
at 27 zero_duals: 2
Switching to elementary pricing
at27, LP obj: 6.572192513368984 n_added_paths: 57
updated lowerbound from 6.0 to 7
Gap too small = 0, stopping pricing with lb = 6
Gap too small = 0, stopping pricing with lb = 6
Gap too small = 0, stopping pricing with lb = 6
at 33 zero_duals: 8
at33, LP obj: 6.025328692962104 n_added_paths: 428
Gap too small = 0, stopping pricing with lb = 6
Gap too small = 0, stopping pricing with lb = 6
Gap too small = 0, stopping pricing with lb = 6
at 40 zero_duals: 7
Switching to elementary pricing
at40, LP obj: 6.020120724346076 n_added_paths: 456
Gap too small = 0, stopping pricing with lb = 6
at 39 zero_duals: 14
at39, LP obj: 6.049040511727079 n_added_paths: 344
Gap too small = 0, stopping pricing with lb = 6
Gap too small = 0, stopping pricing with lb = 6
Gap too small = 0, stopping pricing with lb = 6
Gap too small = 0, stopping pricing with lb = 6
at 37 zero_duals: 46
Switching to elementary pricing
at37, LP obj: 1e+20 n_added_paths: 12
updated lowerbound from 6.0 to 100000000000000000000
at 37 zero_duals: 45
Switching to elementary pricing
at37, LP obj: 1e+20 n_added_paths: 55
updated lowerbound from 6.0 to 100000000000000000000
at 37 zero_duals: 47
Switching to elementary pricing
at37, LP obj: 1e+20 n_added_paths: 0
updated lowerbound from 6.0 to 100000000000000000000
at 43 zero_duals: 44
Switching to elementary pricing
at43, LP obj: 1e+20 n_added_paths: 46
updated lowerbound from 6.0 to 100000000000000000000
at 43 zero_duals: 46
Switching to elementary pricing
at43, LP obj: 1e+20 n_added_paths: 0
updated lowerbound from 6.0 to 100000000000000000000
Gap too small = 0, stopping pricing with lb = 6
Gap too small = 0, stopping pricing with lb = 6
Gap too small = 0, stopping pricing with lb = 6
at 41 zero_duals: 7
Switching to elementary pricing
at41, LP obj: 6.03265306122449 n_added_paths: 270
Gap too small = 0, stopping pricing with lb = 6
Gap too small = 0, stopping pricing with lb = 6
Gap too small = 0, stopping pricing with lb = 6
Gap too small = 0, stopping pricing with lb = 6
Gap too small = 0, stopping pricing with lb = 6
Gap too small = 0, stopping pricing with lb = 6
Gap too small = 0, stopping pricing with lb = 6
Gap too small = 0, stopping pricing with lb = 6
Gap too small = 0, stopping pricing with lb = 6
Gap too small = 0, stopping pricing with lb = 6
Gap too small = 0, stopping pricing with lb = 6
Gap too small = 0, stopping pricing with lb = 6
Gap too small = 0, stopping pricing with lb = 6
Gap too small = 0, stopping pricing with lb = 6
Gap too small = 0, stopping pricing with lb = 6
Gap too small = 0, stopping pricing with lb = 6
at 35 zero_duals: 6
at35, LP obj: 6.006602641056422 n_added_paths: 279
Gap too small = 0, stopping pricing with lb = 6
at 90 zero_duals: 6
Switching to elementary pricing
at90, LP obj: 6.002713704206242 n_added_paths: 172
Gap too small = 0, stopping pricing with lb = 6
Gap too small = 0, stopping pricing with lb = 6
at 94 zero_duals: 4
at94, LP obj: 6.043670886075949 n_added_paths: 231
Gap too small = 0, stopping pricing with lb = 6
Gap too small = 0, stopping pricing with lb = 6
Gap too small = 0, stopping pricing with lb = 6
Gap too small = 0, stopping pricing with lb = 6
at 102 zero_duals: 6
at102, LP obj: 6.020349787512259 n_added_paths: 216
Gap too small = 0, stopping pricing with lb = 6
Gap too small = 0, stopping pricing with lb = 6
at 106 zero_duals: 8
Switching to elementary pricing
at106, LP obj: 6.026807084729535 n_added_paths: 139
Gap too small = 0, stopping pricing with lb = 6
Gap too small = 0, stopping pricing with lb = 6
at 107 zero_duals: 11
at107, LP obj: 6.008771929824562 n_added_paths: 245
Gap too small = 0, stopping pricing with lb = 6
Gap too small = 0, stopping pricing with lb = 6
Gap too small = 0, stopping pricing with lb = 6
at 116 zero_duals: 11
Switching to elementary pricing
at116, LP obj: 6.291970802919708 n_added_paths: 265
Gap too small = 0, stopping pricing with lb = 6
at 118 zero_duals: 8
Switching to elementary pricing
at118, LP obj: 6.133333333333334 n_added_paths: 69
at 118 zero_duals: 5
Switching to elementary pricing
at118, LP obj: 6.006527415143602 n_added_paths: 53
Gap too small = 0, stopping pricing with lb = 6
at 120 zero_duals: 7
Switching to elementary pricing
at120, LP obj: 6.057285180572851 n_added_paths: 22
Gap too small = 0, stopping pricing with lb = 6
at 119 zero_duals: 47
Switching to elementary pricing
at119, LP obj: 1e+20 n_added_paths: 0
updated lowerbound from 6.0 to 100000000000000000000
at 115 zero_duals: 7
Switching to elementary pricing
at115, LP obj: 6.1726457399103145 n_added_paths: 245
at 115 zero_duals: 9
Switching to elementary pricing
at115, LP obj: 6.030927835051546 n_added_paths: 106
Gap too small = 0, stopping pricing with lb = 6
at 124 zero_duals: 7
Switching to elementary pricing
at124, LP obj: 6.02827763496144 n_added_paths: 23
Gap too small = 0, stopping pricing with lb = 6
Gap too small = 0, stopping pricing with lb = 6
Gap too small = 0, stopping pricing with lb = 6
Gap too small = 0, stopping pricing with lb = 6
at 132 zero_duals: 9
at132, LP obj: 6.023809523809524 n_added_paths: 194
Gap too small = 0, stopping pricing with lb = 6
Gap too small = 0, stopping pricing with lb = 6
Gap too small = 0, stopping pricing with lb = 6
at 138 zero_duals: 9
at138, LP obj: 6.001180637544274 n_added_paths: 111
Gap too small = 0, stopping pricing with lb = 6
Best solution found:
[44, 13, 43, 34, 44] 1.0 1.0
checking cycle [44, 13, 43, 34, 44]
[44, 13, 43, 34, 44] 2052 1330
[29, 0, 9, 15, 3, 5, 8, 29] 1.0 1.0
checking cycle [29, 0, 9, 15, 3, 5, 8, 29]
[29, 0, 9, 15, 3, 5, 8, 29] 3132 2997
[47, 35, 32, 40, 12, 16, 39, 47] 1.0 1.0
checking cycle [47, 35, 32, 40, 12, 16, 39, 47]
[47, 35, 32, 40, 12, 16, 39, 47] 1777 1747
[46, 38, 11, 31, 30, 33, 45, 37, 4, 46] 1.0 1.0
checking cycle [46, 38, 11, 31, 30, 33, 45, 37, 4, 46]
[46, 38, 11, 31, 30, 33, 45, 37, 4, 46] 1818 1742
[42, 25, 41, 7, 1, 21, 19, 24, 10, 2, 36, 18, 20, 42] 1.0 1.0
checking cycle [42, 25, 41, 7, 1, 21, 19, 24, 10, 2, 36, 18, 20, 42]
[42, 25, 41, 7, 1, 21, 19, 24, 10, 2, 36, 18, 20, 42] 2161 2143
[28, 23, 17, 14, 22, 27, 6, 26, 28] 1.0 1.0
checking cycle [28, 23, 17, 14, 22, 27, 6, 26, 28]
[28, 23, 17, 14, 22, 27, 6, 26, 28] 3247 2778
